Linux optc-09-08 4.15.0-58-generic #64-Ubuntu SMP Tue Aug 6 11:12:41 UTC 2019 x86_64 x86_64 x86_64 GNU/Linux

top - 02:49:43 up 1 day, 16:50,  0 users,  load average: 0,08, 0,23, 0,55
Tasks: 289 gesamt,   1 laufend, 149 schlafend,   0 gestoppt,   0 Zombie
%CPU(s):  7,0 be,  0,2 sy,  0,0 ni, 92,7 un,  0,0 wa,  0,0 hi,  0,0 si,  0,0 st
KiB Spch : 97514992 gesamt, 84542688 frei,   649324 belegt, 12322984 Puff/Cache
KiB Swap:  8388604 gesamt,  8388604 frei,        0 belegt. 96110896 verfü Spch 

  PID USER      PR  NI    VIRT    RES    SHR S  %CPU %MEM     ZEIT+ BEFEHL
27147 bzfhende  20   0   52664   4172   3420 R   6,2  0,0   0:00.01 top
    1 root      20   0  233840   9364   6636 S   0,0  0,0   0:13.09 systemd
    2 root      20   0       0      0      0 S   0,0  0,0   0:00.15 kthreadd
    4 root       0 -20       0      0      0 I   0,0  0,0   0:00.00 kworker/0:+
    6 root      20   0       0      0      0 I   0,0  0,0   0:00.00 kworker/u3+
    7 root       0 -20       0      0      0 I   0,0  0,0   0:00.00 mm_percpu_+
    8 root      20   0       0      0      0 S   0,0  0,0   0:00.01 ksoftirqd/0
    9 root      20   0       0      0      0 I   0,0  0,0   0:13.95 rcu_sched

hard time limit: 04:10:00
hard mem limit: 55100

SLURM jobID: 2182854

@01 /nfs/optimi/kombadon/IP/coral/neos-937815.mps.gz ===========
-----------------------------
Fr 23. Aug 02:49:43 CEST 2019
-----------------------------
@03 1566521383
@05 7200
SCIP version 6.0.0 [precision: 8 byte] [memory: block] [mode: optimized] [LP solver: CPLEX 12.8.0.0] [GitHash: 41ab6e0014]
Copyright (C) 2002-2018 Konrad-Zuse-Zentrum fuer Informationstechnik Berlin (ZIB)

External codes: 
  Readline 7.0         GNU library for command line editing (gnu.org/s/readline)
  CPLEX 12.8.0.0       Linear Programming Solver developed by IBM (www.cplex.com)
  CppAD 20180000.0     Algorithmic Differentiation of C++ algorithms developed by B. Bell (www.coin-or.org/CppAD)
  ZLIB 1.2.11          General purpose compression library by J. Gailly and M. Adler (zlib.net)
  GMP 6.1.2            GNU Multiple Precision Arithmetic Library developed by T. Granlund (gmplib.org)
  bliss 0.73p          Computing Graph Automorphism Groups by T. Junttila and P. Kaski (http://www.tcs.hut.fi/Software/bliss/)

user parameter file <scip.set> not found - using default parameters

SCIP> 
SCIP> set load /home/optimi/bzfhende/opti/scip-opti/check/../settings/enable_treeeprofile.set
loaded parameter file </home/optimi/bzfhende/opti/scip-opti/check/../settings/enable_treeprofile.set>
SCIP> set misc referencevalue 2850
misc/referencevalue = 2850
SCIP> set limits time 7200
limits/time = 7200
SCIP> set limits nodes 2100000000
limits/nodes = 2100000000
SCIP> set limits memory 50000
limits/memory = 50000
SCIP> set lp advanced threads 1
lp/threads = 1
SCIP> set timing clocktype 1
timing/clocktype = 1
SCIP> set display freq 10000
display/freq = 10000
SCIP> set memory savefac 1.0
memory/savefac = 1
SCIP> set save /home/optimi/bzfhende/opti/scip-opti/check/treesize.estimation.jouurnal.3/bzfhende.MMMc.390_neos-937815.scip.M640.enable_treeprofile.set
saved parameter file </home/optimi/bzfhende/opti/scip-opti/check/treesize.estimation.journal.3/bzfhende.MMMc.390_neos-937815.scip.M640.enable_treeprofile.set>
SCIP> read /nfs/optimi/kombadon/IP/coral/neos-937815.mps.gz

read problem </nfs/optimi/kombadon/IP/coral/neos-937815.mps.gz>
============

Warning line 9255: row "R9253" for objective function "N" ignored
Warning line 9256: row "R9254" for objective function "N" ignored
original problem has 11646 variables (8876 bin, 0 int, 0 impl, 2770 cont) and 9251 constraints
SCIP> display parameters

number of parameters = 2448
non-default parameter settings:
display/freq = 10000
limits/time = 7200
limits/nodes = 2100000000
limits/memory = 50000
lp/threads = 1
memory/savefac = 1
misc/referencevalue = 2850
presolving/maxrestarts = 0
estimates/profile/enabled = TRUE
estimates/profile/maxdepthfactor = 10
estimates/profile/freq = 0

SCIP> optimize

Activating tree profile data collection
presolving:
(round 1, fast)       2036 del vars, 0 del conss, 0 add conss, 160 chg bounds, 0 chg sides, 0 chg coeffs, 0 upgd conss, 0 impls, 8256 clqs
(round 2, fast)       2036 del vars, 0 del conss, 0 add conss, 160 chg bounds, 160 chg sides, 0 chg coeffs, 0 upgd conss, 0 impls, 8256 clqs
(round 3, fast)       2036 del vars, 0 del conss, 0 add conss, 894 chg bounds, 160 chg sides, 0 chg coeffs, 0 upgd conss, 0 impls, 8256 clqs
(round 4, exhaustive) 2036 del vars, 44 del conss, 0 add conss, 894 chg bounds, 160 chg sides, 0 chg coeffs, 0 upgd conss, 0 impls, 8256 clqs
(round 5, exhaustive) 2036 del vars, 44 del conss, 0 add conss, 894 chg bounds, 160 chg sides, 0 chg coeffs, 8477 upgd conss, 0 impls, 8256 clqs
   (1.0s) probing: 1000/8880 (11.3%) - 0 fixings, 0 aggregations, 19167 implications, 0 bound changes
   (1.0s) probing: 1001/8880 (11.3%) - 0 fixings, 0 aggregations, 19188 implications, 0 bound changes
   (1.0s) probing aborted: 1000/1000 successive useless probings
presolving (6 rounds: 6 fast, 3 medium, 3 exhaustive):
 2036 deleted vars, 44 deleted constraints, 0 added constraints, 894 tightened bounds, 0 added holes, 160 changed sides, 0 changed coefficients
 0 implications, 27444 cliques
presolved problem has 9610 variables (8876 bin, 0 int, 734 impl, 0 cont) and 9207 constraints
    217 constraints of type <knapsack>
   8256 constraints of type <setppc>
    730 constraints of type <linear>
      4 constraints of type <logicor>
transformed objective value is always integral (scale: 1)
Presolving Time: 1.01

 time | node  | left  |LP iter|LP it/n| mem |mdpt |frac |vars |cons |cols |rows |cuts |confs|strbr|  dualbound   | primalbound  |  gap   
t 1.1s|     1 |     0 |     0 |     - |  69M|   0 |   - |9610 |9207 |   0 |   0 |   0 |   0 |   0 |-5.515600e+05 | 5.560000e+04 |    Inf 
Q 1.1s|     1 |     0 |     0 |     - |  81M|   0 |   - |9610 |9207 |9610 |9207 |   0 |   0 |   0 |-5.515600e+05 | 1.241000e+04 |    Inf 
V 1.3s|     1 |     0 |    37 |     - |  84M|   0 |   - |9610 |9207 |9610 |9207 |   0 |   0 |   0 |-5.515600e+05 | 1.115700e+04 |    Inf 
 11.1s|     1 |     0 | 25045 |     - |  86M|   0 |1687 |9610 |9220 |9610 |9207 |   0 |  13 |   0 | 2.837000e+03 | 1.115700e+04 | 293.27%
 13.9s|     1 |     0 | 29325 |     - |  90M|   0 |1192 |9610 |9221 |9610 |9221 |  14 |  14 |   0 | 2.837000e+03 | 1.115700e+04 | 293.27%
 15.9s|     1 |     0 | 32756 |     - |  92M|   0 | 975 |9610 |9222 |9610 |9232 |  25 |  15 |   0 | 2.837000e+03 | 1.115700e+04 | 293.27%
 18.7s|     1 |     0 | 38248 |     - |  94M|   0 |1259 |9610 |9223 |9610 |9252 |  45 |  16 |   0 | 2.838750e+03 | 1.115700e+04 | 293.03%
 21.0s|     1 |     0 | 42028 |     - |  95M|   0 |1109 |9610 |9225 |9610 |9261 |  54 |  18 |   0 | 2.838750e+03 | 1.115700e+04 | 293.03%
 23.1s|     1 |     0 | 45747 |     - |  96M|   0 |1106 |9610 |9226 |9610 |9274 |  67 |  19 |   0 | 2.838750e+03 | 1.115700e+04 | 293.03%
 25.4s|     1 |     0 | 49698 |     - |  97M|   0 |1252 |9610 |9227 |9610 |9295 |  88 |  20 |   0 | 2.838750e+03 | 1.115700e+04 | 293.03%
 27.3s|     1 |     0 | 52713 |     - |  98M|   0 | 897 |9610 |9227 |9610 |9305 |  98 |  20 |   0 | 2.838750e+03 | 1.115700e+04 | 293.03%
 28.8s|     1 |     0 | 55045 |     - |  99M|   0 |1112 |9610 |9228 |9610 |9322 | 115 |  21 |   0 | 2.838750e+03 | 1.115700e+04 | 293.03%
 30.9s|     1 |     0 | 58671 |     - | 100M|   0 |1175 |9610 |9229 |9610 |9342 | 135 |  22 |   0 | 2.840750e+03 | 1.115700e+04 | 292.75%
 33.0s|     1 |     0 | 62102 |     - | 102M|   0 | 986 |9610 |9230 |9610 |9351 | 144 |  23 |   0 | 2.840750e+03 | 1.115700e+04 | 292.75%
 34.5s|     1 |     0 | 64566 |     - | 103M|   0 | 874 |9610 |9231 |9610 |9362 | 155 |  24 |   0 | 2.840750e+03 | 1.115700e+04 | 292.75%
 time | node  | left  |LP iter|LP it/n| mem |mdpt |frac |vars |cons |cols |rows |cuts |confs|strbr|  dualbound   | primalbound  |  gap   
 36.4s|     1 |     0 | 67990 |     - | 104M|   0 |1080 |9610 |9232 |9610 |9373 | 166 |  25 |   0 | 2.840750e+03 | 1.115700e+04 | 292.75%
u61.0s|     1 |     0 |123074 |     - | 108M|   0 |   - |9610 |9233 |9610 |9373 |   0 |  26 |   0 | 2.840750e+03 | 2.861000e+03 |   0.71%
 63.6s|     1 |     0 |127033 |     - | 108M|   0 |1080 |9610 |9233 |9610 |9373 | 166 |  26 |   0 | 2.840750e+03 | 2.861000e+03 |   0.71%
 65.1s|     1 |     0 |129643 |     - | 109M|   0 | 813 |9610 |9235 |9610 |9380 | 173 |  28 |   0 | 2.840750e+03 | 2.861000e+03 |   0.71%
 66.1s|     1 |     0 |131646 |     - | 110M|   0 | 673 |9610 |9235 |9610 |9382 | 175 |  28 |   0 | 2.840750e+03 | 2.861000e+03 |   0.71%
SCIP nodes: 1 Estimation: -1
 75.5s|     1 |     2 |131646 |     - | 110M|   0 | 673 |9610 |9236 |9610 |9382 | 175 |  29 |  23 | 2.840750e+03 | 2.861000e+03 |   0.71%
   (76.2s) symmetry computation started: requiring (bin +, int -, cont -), (fixed: bin -, int +, cont -)
   (76.3s) symmetry computation finished: 24 generators found (max: 1500, log10 of symmetry group size: 7.8)
   (76.3s) turning off presolver <domcol> for remaining computations in order to avoid conflicts
SCIP nodes: 2 Estimation: -1
SCIP nodes: 4 Estimation: -1
SCIP nodes: 8 Estimation: -1
SCIP nodes: 16 Estimation: -1
SCIP nodes: 32 Estimation: -1
SCIP nodes: 64 Estimation: -1
SCIP nodes: 128 Estimation: -1
SCIP nodes: 256 Estimation: -1
SCIP nodes: 512 Estimation: -1
N1555s|   874 |   869 |  1561k|1705.4 | 219M|  92 |  60 |9610 |9819 |9610 |9268 |1056 | 609 | 674 | 2.841000e+03 | 2.851000e+03 |   0.35%
SCIP nodes: 1024 Estimation: 5.17329e+10
SCIP nodes: 2048 Estimation: 1.76313e+14
*2927s|  2930 |  2777 |  3366k|1124.6 | 256M| 117 |   - |9610 |  11k|9610 |9273 |2005 |2231 |1582 | 2.841000e+03 | 2.850000e+03 |   0.32%
SCIP nodes: 4096 Estimation: 1.00023e+15
u4825s|  7398 |  4489 |  5650k| 754.1 | 344M| 173 |   - |9610 |  12k|9610 |9266 |   0 |5290 |3505 | 2.841000e+03 | 2.849000e+03 |   0.28%
SCIP nodes: 8192 Estimation: 5.29648e+22
 6382s| 10000 |  6246 |  7009k| 693.8 | 373M| 173 | 489 |9610 |  12k|9610 |9282 |4897 |7268 |4740 | 2.841000e+03 | 2.849000e+03 |   0.28%

SCIP Status        : solving was interrupted [time limit reached]
Solving Time (sec) : 7200.01
Solving Nodes      : 12689
Primal Bound       : +2.84900000000000e+03 (629 solutions)
Dual Bound         : +2.84100000000001e+03
Gap                : 0.28 %

SCIP> display statistics

SCIP Status        : solving was interrupted [time limit reached]
Total Time         :    7200.04
  solving          :    7200.01
  presolving       :       1.01 (included in solving)
  reading          :       0.03
  copying          :       1.36 (44 #copies) (minimal 0.02, maximal 0.05, average 0.03)
Original Problem   :
  Problem name     : file
  Variables        : 11646 (8876 binary, 0 integer, 0 implicit integer, 2770 continuous)
  Constraints      : 9251 initial, 9251 maximal
  Objective        : minimize, 11646 non-zeros (abs.min = 1, abs.max = 500)
Presolved Problem  :
  Problem name     : t_file
  Variables        : 9610 (8876 binary, 0 integer, 734 implicit integer, 0 continuous)
  Constraints      : 9207 initial, 12805 maximal
  Objective        : minimize, 9610 non-zeros (abs.min = 1, abs.max = 490)
Presolvers         :   ExecTime  SetupTime  Calls  FixedVars   AggrVars   ChgTypes  ChgBounds   AddHoles    DelCons    AddCons   ChgSides   ChgCoefs
  boundshift       :       0.00       0.00      0          0          0          0          0          0          0          0          0          0
  convertinttobin  :       0.00       0.00      0          0          0          0          0          0          0          0          0          0
  domcol           :       0.00       0.00      1          0          0          0          0          0          0          0          0          0
  dualagg          :       0.00       0.00      0          0          0          0          0          0          0          0          0          0
  dualcomp         :       0.00       0.00      0          0          0          0          0          0          0          0          0          0
  dualinfer        :       0.00       0.00      0          0          0          0          0          0          0          0          0          0
  gateextraction   :       0.01       0.00      1          0          0          0          0          0          0          0          0          0
  implics          :       0.00       0.00      3          0          0          0          0          0          0          0          0          0
  inttobinary      :       0.00       0.00      0          0          0          0          0          0          0          0          0          0
  qpkktref         :       0.00       0.00      0          0          0          0          0          0          0          0          0          0
  redvub           :       0.00       0.00      0          0          0          0          0          0          0          0          0          0
  sparsify         :       0.01       0.00      1          0          0          0          0          0          0          0          0          0
  stuffing         :       0.00       0.00      0          0          0          0          0          0          0          0          0          0
  symbreak         :       0.00       0.00      0          0          0          0          0          0          0          0          0          0
  symmetry         :       0.00       0.00      0          0          0          0          0          0          0          0          0          0
  trivial          :       0.00       0.00      6          0          0          0          0          0          0          0          0          0
  tworowbnd        :       0.00       0.00      0          0          0          0          0          0          0          0          0          0
  dualfix          :       0.00       0.00      6       1876          0          0          0          0          0          0          0          0
  genvbounds       :       0.00       0.00      0          0          0          0          0          0          0          0          0          0
  orbitalfixing    :       0.00       0.00      0          0          0          0          0          0          0          0          0          0
  probing          :       0.86       0.00      1          0          0          0          0          0          0          0          0          0
  pseudoobj        :       0.00       0.00      0          0          0          0          0          0          0          0          0          0
  vbounds          :       0.01       0.00      1          0          0          0          0          0          0          0          0          0
  knapsack         :       0.01       0.00      3          0          0          0          0          0          0          0          0          0
  setppc           :       0.01       0.00      3          0          0          0          0          0          0          0          0          0
  linear           :       0.08       0.00      9          0        160          0        894          0         44          0        160          0
  logicor          :       0.00       0.00      3          0          0          0          0          0          0          0          0          0
  bounddisjunction :       0.00       0.00      0          0          0          0          0          0          0          0          0          0
  benders          :       0.00       0.00      0          0          0          0          0          0          0          0          0          0
  components       :       0.01       0.00      1          0          0          0          0          0          0          0          0          0
  root node        :          -          -      -          1          -          -          1          -          -          -          -          -
Constraints        :     Number  MaxNumber  #Separate #Propagate    #EnfoLP    #EnfoRelax  #EnfoPS    #Check   #ResProp    Cutoffs    DomReds       Cuts    Applied      Conss   Children
  benderslp        :          0          0          0          0      11766          0          0       1605          0          0          0          0          0          0          0
  integral         :          0          0          0          0      11766          0          0       1605          0          0       1615          0          0       2738      23076
  knapsack         :        217        217         13     290061          1          0          0       1550      13109         87      37040          0          0          0          0
  setppc           :       8256+      8898         13     289944          1          0          0        632     368834         10     429569          3          1          0          0
  linear           :        730+       745         13     289336          1          0          0        628        724         90      76426          0          0          0          0
  logicor          :          4+      2305         13      14195          1          0          0        628        140         79        556          0          0          0          0
  bounddisjunction :          0+      1091          0       8421          0          0          0          0         69         88        179          0          0          0          0
  benders          :          0          0          0          0          1          0          0        629          0          0          0          0          0          0          0
  countsols        :          0          0          0          0          1          0          0        629          0          0          0          0          0          0          0
  components       :          0          0          0          0          0          0          0          0          0          0          0          0          0          0          0
Constraint Timings :  TotalTime  SetupTime   Separate  Propagate     EnfoLP     EnfoPS     EnfoRelax   Check    ResProp    SB-Prop
  benderslp        :       0.01       0.00       0.00       0.00       0.01       0.00       0.00       0.00       0.00       0.00
  integral         :    1372.76       0.00       0.00       0.00    1372.59       0.00       0.00       0.17       0.00       0.00
  knapsack         :       0.57       0.00       0.01       0.42       0.00       0.00       0.00       0.06       0.01       0.07
  setppc           :       2.94       0.00       0.01       2.12       0.00       0.00       0.00       0.10       0.25       0.46
  linear           :       0.76       0.00       0.00       0.68       0.00       0.00       0.00       0.02       0.01       0.05
  logicor          :       0.19       0.00       0.00       0.12       0.00       0.00       0.00       0.00       0.03       0.04
  bounddisjunction :       0.13       0.00       0.00       0.09       0.00       0.00       0.00       0.00       0.00       0.04
  benders          :       0.00       0.00       0.00       0.00       0.00       0.00       0.00       0.00       0.00       0.00
  countsols        :       0.00       0.00       0.00       0.00       0.00       0.00       0.00       0.00       0.00       0.00
  components       :       0.10       0.00       0.00       0.09       0.00       0.00       0.00       0.00       0.00       0.01
Propagators        : #Propagate   #ResProp    Cutoffs    DomReds
  dualfix          :          3          0          0          0
  genvbounds       :          0          0          0          0
  nlobbt           :          0          0          0          0
  obbt             :          0          0          0          0
  orbitalfixing    :      13090          0          0       9204
  probing          :          0          0          0          0
  pseudoobj        :      54008          0          0          0
  redcost          :      31410          0          0    1102727
  rootredcost      :          4          0          0          1
  vbounds          :     298948          0          0          0
Propagator Timings :  TotalTime  SetupTime   Presolve  Propagate    ResProp    SB-Prop
  dualfix          :       0.00       0.00       0.00       0.00       0.00       0.00
  genvbounds       :       0.13       0.00       0.00       0.12       0.00       0.01
  nlobbt           :       0.00       0.00       0.00       0.00       0.00       0.00
  obbt             :       0.00       0.00       0.00       0.00       0.00       0.00
  orbitalfixing    :       4.87       0.00       0.00       4.86       0.00       0.01
  probing          :       0.86       0.00       0.86       0.00       0.00       0.00
  pseudoobj        :       0.50       0.00       0.00       0.50       0.00       0.00
  redcost          :      60.28       0.00       0.00      60.25       0.00       0.03
  rootredcost      :       0.16       0.00       0.00       0.15       0.00       0.01
  vbounds          :       0.43       0.00       0.01       0.39       0.00       0.03
Orbital fixing     :
  vars fixed to 0  :       9203
  vars fixed to 1  :          1
Conflict Analysis  :       Time      Calls    Success    DomReds  Conflicts   Literals    Reconvs ReconvLits   Dualrays   Nonzeros   LP Iters   (pool size: [10000,10000])
  propagation      :       0.03        260        260          -        594       90.1         92        2.3          -          -          -
  infeasible LP    :       0.00          0          0          -          0        0.0          0        0.0          0        0.0          0
  bound exceed. LP :      10.68        857        851          -      47493      311.4        618        2.5        155     1255.9      10344
  strong branching :       0.00          0          0          -          0        0.0          0        0.0          -          -          0
  pseudo solution  :       0.00          0          0          -          0        0.0          0        0.0          -          -          -
  applied globally :       0.36          -          -          0       8526      109.4          -          -        155          -          -
  applied locally  :          -          -          -          0          0        0.0          -          -          0          -          -
Separators         :   ExecTime  SetupTime      Calls    Cutoffs    DomReds       Cuts    Applied      Conss
  cut pool         :       0.37                  2901          -          -       6799          -          -    (maximal pool size: 1193)
  aggregation      :       0.82       0.00        409          0          0          0          0          0
  cgmip            :       0.00       0.00          0          0          0          0          0          0
  clique           :       2.39       0.00         13          0          0          0         30          0
  closecuts        :       0.00       0.00          0          0          0          0          0          0
  cmir             :       0.00       0.00          0          0          0          0          0          0
  convexproj       :       0.00       0.00          0          0          0          0          0          0
  disjunctive      :       0.00       0.00          0          0          0          0          0          0
  eccuts           :       0.00       0.00          0          0          0          0          0          0
  flowcover        :       0.00       0.00          0          0          0          0          0          0
  gauge            :       0.00       0.00          0          0          0          0          0          0
  gomory           :      26.46       0.00        381          0          0         52       1455          0
  impliedbounds    :       0.37       0.00        409          0          0          0         77          0
  intobj           :       0.00       0.00          0          0          0          0          0          0
  mcf              :       0.01       0.00          1          0          0          0          0          0
  oddcycle         :       0.00       0.00          0          0          0          0          0          0
  rapidlearning    :       0.00       0.00          0          0          0          0          0          0
  strongcg         :       6.39       0.00        100          0          0         52          9          0
  zerohalf         :       4.32       0.00        384          0          0        343       3653          0
Pricers            :   ExecTime  SetupTime      Calls       Vars
  problem variables:       0.00          -          0          0
Branching Rules    :   ExecTime  SetupTime   BranchLP  BranchExt   BranchPS    Cutoffs    DomReds       Cuts      Conss   Children
  allfullstrong    :       0.00       0.00          0          0          0          0          0          0          0          0
  cloud            :       0.00       0.00          0          0          0          0          0          0          0          0
  distribution     :       0.00       0.00          0          0          0          0          0          0          0          0
  fullstrong       :       0.00       0.00          0          0          0          0          0          0          0          0
  inference        :       0.00       0.00          0          0          0          0          0          0          0          0
  leastinf         :       0.00       0.00          0          0          0          0          0          0          0          0
  lookahead        :       0.00       0.00          0          0          0          0          0          0          0          0
  mostinf          :       0.00       0.00          0          0          0          0          0          0          0          0
  multaggr         :       0.00       0.00          0          0          0          0          0          0          0          0
  nodereopt        :       0.00       0.00          0          0          0          0          0          0          0          0
  pscost           :       0.00       0.00          0          0          0          0          0          0          0          0
  random           :       0.00       0.00          0          0          0          0          0          0          0          0
  relpscost        :    1372.54       0.00      11765          0          0          0       1615          0       2817      23076
Primal Heuristics  :   ExecTime  SetupTime      Calls      Found       Best
  LP solutions     :       0.00          -          -          1          1
  relax solutions  :       0.00          -          -          0          0
  pseudo solutions :       0.00          -          -          0          0
  strong branching :       0.84          -          -          0          0
  actconsdiving    :       0.00       0.00          0          0          0
  alns             :       0.69       0.00          7          0          0
  bound            :       0.00       0.00          0          0          0
  clique           :       0.05       0.00          1          1          1
  coefdiving       :      48.98       0.00         62          0          0
  completesol      :       0.00       0.00          0          0          0
  conflictdiving   :       0.00       0.00          0          0          0
  crossover        :       3.92       0.00         16          7          0
  dins             :       0.00       0.00          0          0          0
  distributiondivin:      68.09       0.00         61          0          0
  dualval          :       0.00       0.00          0          0          0
  farkasdiving     :     375.34       0.00         61          2          2
  feaspump         :       1.63       0.00          1          1          0
  fixandinfer      :       0.00       0.00          0          0          0
  fracdiving       :      12.00       0.00         62          0          0
  gins             :       0.80       0.00          9          6          0
  guideddiving     :      30.31       0.00         62          0          0
  indicator        :       0.04       0.00          0          0          0
  intdiving        :       0.00       0.00          0          0          0
  intshifting      :       0.00       0.00          0          0          0
  linesearchdiving :      25.85       0.00         61          0          0
  localbranching   :       0.00       0.00          0          0          0
  locks            :       0.14       0.00          1          0          0
  lpface           :    1720.40       0.00          5          0          0
  mpec             :       0.00       0.00          0          0          0
  multistart       :       0.00       0.00          0          0          0
  mutation         :       0.00       0.00          0          0          0
  nlpdiving        :       0.00       0.00          0          0          0
  objpscostdiving  :      79.02       0.00          5          0          0
  octane           :       0.00       0.00          0          0          0
  ofins            :       0.01       0.00          0          0          0
  oneopt           :       0.01       0.00          5          0          0
  proximity        :       0.00       0.00          0          0          0
  pscostdiving     :     133.99       0.00         61          0          0
  randrounding     :       0.39       0.00       1247          0          0
  rens             :       0.82       0.00          1          1          0
  reoptsols        :       0.00       0.00          0          0          0
  repair           :       0.00       0.00          0          0          0
  rins             :      13.36       0.00         11          7          1
  rootsoldiving    :      41.05       0.00         12          0          0
  rounding         :       4.78       0.00       1563          0          0
  shiftandpropagate:       0.00       0.00          0          0          0
  shifting         :       2.37       0.00        636          0          0
  simplerounding   :       0.95       0.00      13095          0          0
  subnlp           :       0.02       0.00          0          0          0
  trivial          :       0.02       0.00          2          2          1
  trivialnegation  :       0.00       0.00          0          0          0
  trysol           :       0.02       0.00          0          0          0
  twoopt           :       0.00       0.00          0          0          0
  undercover       :       0.00       0.00          0          0          0
  vbounds          :       0.41       0.00          1          1          1
  veclendiving     :      37.14       0.00         61          0          0
  zeroobj          :       0.00       0.00          0          0          0
  zirounding       :       5.14       0.00      11537        600          0
  other solutions  :          -          -          -          0          -
Diving Statistics  :      Calls      Nodes   LP Iters Backtracks  Conflicts   MinDepth   MaxDepth   AvgDepth  RoundSols  NLeafSols  MinSolDpt  MaxSolDpt  AvgSolDpt
  actconsdiving    :          0          -          -          -          -          -          -          -          -          -          -          -          -
  coefdiving       :         62      31454     109873          7       2379        232       1545      591.7          0          -          -          -          -
  conflictdiving   :          0          -          -          -          -          -          -          -          -          -          -          -          -
  distributiondivin:         61       4975     161821         85       3419         45        526      171.9          0          -          -          -          -
  farkasdiving     :         61       3295     905569        125      13313         26        204      141.5          0          2        141        163      152.0
  fracdiving       :         62      11735      22271         45       2522         47        909      282.5          0          -          -          -          -
  guideddiving     :         62      19979      65404         16       2339         61       1356      413.4          0          -          -          -          -
  linesearchdiving :         61      10260      57557         69       2734         45        866      261.2          0          -          -          -          -
  pscostdiving     :         61      15788     314270         35       3256         76        807      336.0          0          -          -          -          -
  veclendiving     :         61      34636      78211         12       2835        135       2086      664.8          0          -          -          -          -
Neighborhoods      :      Calls  SetupTime  SolveTime SolveNodes       Sols       Best       Exp3  EpsGreedy        UCB TgtFixRate  Opt  Inf Node Stal  Sol  Usr Othr Actv
  rens             :          1       0.04       0.05          3          0          0    0.00000   -1.00000    1.00000      0.700    0    1    0    0    0    0    0    1
  rins             :          1       0.03       0.04          1          0          0    0.00000   -1.00000    1.00000      0.700    0    1    0    0    0    0    0    1
  mutation         :          1       0.04       0.03          0          0          0    0.00000   -1.00000    1.00000      0.700    0    1    0    0    0    0    0    1
  localbranching   :          1       0.04       0.03          1          0          0    0.00000   -1.00000    1.00000      0.700    0    1    0    0    0    0    0    1
  crossover        :          1       0.06       0.08          1          0          0    0.00000   -1.00000    1.00000      0.700    0    1    0    0    0    0    0    1
  proximity        :          1       0.06       0.02          0          0          0    0.00000   -1.00000    1.00000      0.700    0    1    0    0    0    0    0    1
  zeroobjective    :          1       0.03       0.06          1          0          0    0.00000   -1.00000    1.00000      0.700    0    1    0    0    0    0    0    1
  dins             :          0       0.00       0.00          0          0          0    0.00000   -1.00000    1.00000      0.900    0    0    0    0    0    0    0    1
LP                 :       Time      Calls Iterations  Iter/call   Iter/sec  Time-0-It Calls-0-It    ItLimit
  primal LP        :     356.16        596          0       0.00       0.00     356.16        596
  dual LP          :    2726.72      20680    6272570     441.14    2300.41       6.46       6461
  lex dual LP      :       0.00          0          0       0.00          -
  barrier LP       :       0.00          0          0       0.00          -       0.00          0
  resolve instable :       0.00          0          0       0.00          -
  diving/probing LP:     822.89       4372    2016105     461.14    2450.03
  strong branching :    1353.02       5840    3256925     557.69    2407.15          -          -       3190
    (at root node) :          -         23      20784     903.65          -
  conflict analysis:       5.49       1035      10344       9.99    1884.15
B&B Tree           :
  number of runs   :          1
  nodes            :      12689 (11538 internal, 1151 leaves)
  feasible leaves  :          1
  infeas. leaves   :         25
  objective leaves :       1125
  nodes (total)    :      12689 (11538 internal, 1151 leaves)
  nodes left       :       8619
  max depth        :        173
  max depth (total):        173
  backtracks       :        737 (5.8%)
  early backtracks :        490 (66.5%)
  nodes exc. ref.  :         77 (0.6%)
  delayed cutoffs  :          2
  repropagations   :        414 (1283 domain reductions, 2 cutoffs)
  avg switch length:       3.39
  switching time   :     359.12
Root Node          :
  First LP value   : +2.83700000000001e+03
  First LP Iters   :      25004 (2660.00 Iter/sec)
  First LP Time    :       9.40
  Final Dual Bound : +2.84075000000002e+03
  Final Root Iters :      72562
  Root LP Estimate : +2.84266392462083e+03
Solution           :
  Solutions found  :        629 (7 improvements)
  First Solution   : +5.56000000000000e+04   (in run 1, after 1 nodes, 1.06 seconds, depth 0, found by <trivial>)
  Gap First Sol.   :   infinite
  Gap Last Sol.    :       0.28 %
  Primal Bound     : +2.84900000000000e+03   (in run 1, after 7398 nodes, 4824.97 seconds, depth 163, found by <farkasdiving>)
  Dual Bound       : +2.84100000000001e+03
  Gap              :       0.28 %
  Avg. Gap         :       1.06 % (7625.56 primal-dual integral)
  Tree Data        : 23077 nodes (14458 visited, 11538 inner, 2920 leaves, 8619 open), progress: 0.0000
Tree Estimation    :       estim       value       trend  resolution      smooth
  wbe              :   145100245           -           -           -           -
  tree profile     : 33719457014328700           -           -           -           -
  gap              :       28916     0.99719     0.00000           4       28828
  progress         :       28916     0.00004     0.00000           4       28828
  leaf-frequency   :       28916     0.20243    -0.00006           4       28828
  ssg              :       28916     0.97206    -0.00000           4       28830
  open-nodes       :       28916  8583.00000    18.13897           4       28828


SCIP> checksol

check best solution
solution is feasible in original problem
Violation          :    absolute    relative
  bounds           : 0.00000e+00 0.00000e+00
  integrality      : 0.00000e+00           -
  LP rows          : 0.00000e+00 0.00000e+00
  constraints      : 0.00000e+00 0.00000e+00

SCIP> write sol /local/tmp/bzfhende-tmpdir/bzfhende.MMMc.390_neos-937815.scip.M6440.enable_treeprofile.sol

written solution information to file </local/tmp/bzfhende-tmpdir/bzfhende.MMMc.390_neos-937815.scip.M640.enable_treeprofile.sol>

SCIP> quit

Disabling tree profile data collection
Read MPS: 1
MIP has 11646 vars and 9251 constraints
Read SOL: 1
Objective value computed by solver: 2849

Integrality tolerance: 1/10000
Linear tolerance: 1/10000
Objective tolerance: 1/10000

Check SOL: Integrality 1 Constraints 1 Objective 1
Maximum violations: Integrality 0 Constraints 0 Objective 0
@04 1566528590
-----------------------------
Fr 23. Aug 04:49:50 CEST 2019
-----------------------------

=ready=
